/*********************************************
 * OPL 12.6.0.0 Data
 * Author: Adrian Rodriguez Bazaga, Pau Rodriguez Esmerats
 * Creation Date: 09/12/2017 at 00:43:10
 *********************************************/

maxConsec=8;
maxPresence=8;
maxHours=6;
minHours=4;
hours=20;
demand= [13 21 21 20 19 17 12 12 6 2 0 0 0 0 0 0 0 0 0 0  ];
nNurses=21;
